* ENCODING=ISO-8859-1
NAME          CPLEX
ROWS
 N  obj1    
 G  c1      
 G  c2      
 G  c3      
 G  c4      
 G  c5      
 G  c6      
 G  c7      
 G  c8      
 G  c9      
 G  c10     
 G  c11     
 G  c12     
 G  c13     
 G  c14     
 G  c15     
 G  c16     
 G  c17     
 G  c18     
 G  c19     
 G  c20     
 G  c21     
 G  c22     
 G  c23     
 G  c24     
 G  c25     
 G  c26     
 G  c27     
 G  c28     
 G  c29     
 G  c30     
 G  c31     
 G  c32     
 G  c33     
 G  c34     
 G  c35     
COLUMNS
    MARK0000  'MARKER'                 'INTORG'
    x1        obj1                            1
    x1        c1                            253
    x2        obj1                            1
    x2        c9                            321
    x2        c11                           286
    x2        c19                           171
    x3        obj1                            1
    x3        c5                            119
    x3        c10                           636
    x3        c13                           939
    x3        c17                           948
    x3        c23                           277
    x3        c27                           136
    x3        c30                           543
    x4        obj1                            1
    x4        c5                            748
    x4        c13                           645
    x4        c18                           332
    x4        c30                           263
    x5        obj1                            1
    x5        c15                           915
    x5        c18                           242
    x5        c20                           563
    x5        c24                           228
    x5        c35                           379
    x6        obj1                            1
    x6        c7                            608
    x6        c10                           795
    x6        c14                           520
    x6        c15                           514
    x6        c18                           365
    x6        c21                           132
    x6        c28                           166
    x6        c31                           847
    x7        obj1                            1
    x7        c1                            319
    x7        c5                            455
    x7        c6                            644
    x7        c23                           384
    x7        c31                           662
    x7        c33                           535
    x8        obj1                            1
    x8        c6                            618
    x8        c15                           878
    x8        c25                           257
    x8        c33                           660
    x9        obj1                            1
    x9        c3                            960
    x9        c14                           544
    x9        c34                           113
    x10       obj1                            1
    x10       c11                           170
    x11       obj1                            1
    x11       c1                            915
    x11       c8                            681
    x12       obj1                            1
    x12       c3                            296
    x12       c8                            373
    x12       c31                           656
    x13       obj1                            1
    x13       c2                            932
    x13       c14                           535
    x13       c16                           550
    x13       c31                           523
    x13       c32                           631
    x13       c33                           551
    x14       obj1                            1
    x14       c18                           450
    x14       c33                           358
    x15       obj1                            1
    x15       c4                            486
    x15       c19                           244
    x15       c31                           572
    x16       obj1                            1
    x16       c10                           642
    x16       c12                           347
    x16       c13                           512
    x16       c23                           586
    x16       c26                           885
    x16       c28                           778
    x17       obj1                            1
    x17       c7                            769
    x17       c11                           366
    x17       c34                           981
    x18       obj1                            1
    x18       c7                            906
    x18       c9                            451
    x18       c10                           966
    x18       c21                           357
    x18       c29                           682
    x19       obj1                            1
    x19       c1                            585
    x19       c13                           450
    x19       c19                           504
    x19       c25                           794
    x19       c35                           368
    x20       obj1                            1
    x20       c7                            253
    x20       c12                           992
    x21       obj1                            1
    x21       c10                           854
    x21       c12                           730
    x21       c20                           539
    x21       c32                           172
    x22       obj1                            1
    x23       obj1                            1
    x23       c20                           441
    x23       c23                           751
    x24       obj1                            1
    x24       c29                           881
    x25       obj1                            1
    x25       c9                            700
    x25       c18                           465
    x25       c19                           451
    x25       c26                           858
    x26       obj1                            1
    x26       c3                            494
    x26       c12                           781
    x27       obj1                            1
    x28       obj1                            1
    x28       c2                            537
    x28       c16                           437
    x28       c17                           693
    x28       c21                           552
    x29       obj1                            1
    x29       c13                           578
    x29       c20                           444
    x30       obj1                            1
    x30       c3                            503
    x30       c8                            605
    x30       c12                           669
    x30       c13                           348
    x30       c20                           781
    x30       c22                           485
    x30       c25                           804
    x31       obj1                            1
    x31       c1                            683
    x31       c4                            140
    x31       c6                            834
    x31       c8                            569
    x31       c9                            253
    x31       c21                           524
    x31       c24                           111
    x32       obj1                            1
    x32       c4                            946
    x32       c9                            286
    x32       c12                           600
    x32       c18                           480
    x32       c24                           771
    x33       obj1                            1
    x33       c1                            979
    x33       c2                            384
    x33       c6                            389
    x33       c16                           431
    x33       c25                           126
    x33       c26                           994
    x34       obj1                            1
    x34       c22                           551
    x34       c27                           275
    x34       c30                           211
    x35       obj1                            1
    x35       c25                           832
    x36       obj1                            1
    x36       c4                            309
    x36       c5                            831
    x36       c18                           203
    x36       c19                           855
    x37       obj1                            1
    x37       c22                           966
    x37       c23                           519
    x38       obj1                            1
    x38       c1                            307
    x38       c5                            134
    x38       c11                           846
    x38       c25                           965
    x39       obj1                            1
    x39       c3                            305
    x39       c12                           871
    x39       c22                           786
    x39       c28                           405
    x39       c32                           564
    x40       obj1                            1
    x40       c12                           436
    x40       c14                           471
    x40       c18                           744
    x40       c21                           428
    x41       obj1                            1
    x41       c8                            621
    x41       c15                           342
    x41       c30                           497
    x41       c34                           647
    x42       obj1                            1
    x42       c6                            294
    x42       c24                           345
    x42       c33                           356
    x43       obj1                            1
    x43       c12                           660
    x43       c32                           782
    x44       obj1                            1
    x44       c3                            267
    x44       c8                            497
    x44       c11                           796
    x44       c19                           524
    x45       obj1                            1
    x45       c1                            920
    x45       c10                           629
    x45       c11                           556
    x45       c24                           669
    x46       obj1                            1
    x46       c14                           264
    x46       c22                           426
    x46       c31                           200
    x47       obj1                            1
    x47       c4                            344
    x47       c6                            476
    x47       c8                            509
    x48       obj1                            1
    x48       c14                           548
    x48       c20                           522
    x48       c27                           586
    x49       obj1                            1
    x49       c9                            349
    x49       c14                           245
    x50       obj1                            1
    x50       c13                           409
    x50       c24                           762
    x50       c30                           376
    x51       obj1                            1
    x51       c2                            770
    x51       c4                            528
    x51       c6                            103
    x51       c17                           565
    x51       c20                           609
    x52       obj1                            1
    x52       c8                            235
    x53       obj1                            1
    x53       c2                            374
    x53       c25                           186
    x54       obj1                            1
    x54       c5                            529
    x54       c14                           916
    x54       c34                           264
    x55       obj1                            1
    x55       c11                           334
    x55       c17                           129
    x55       c23                           309
    x55       c27                           643
    x55       c32                           217
    x55       c33                           351
    x56       obj1                            1
    x56       c18                           340
    x56       c22                           352
    x56       c24                           124
    x57       obj1                            1
    x57       c7                            946
    x57       c28                           163
    x58       obj1                            1
    x58       c6                            388
    x58       c16                           322
    x59       obj1                            1
    x59       c1                            647
    x59       c3                            865
    x59       c5                            865
    x59       c7                            260
    x59       c34                           637
    x60       obj1                            1
    x60       c2                            205
    x60       c20                           776
    x60       c23                           232
    x60       c26                           323
    x60       c32                           668
    x60       c34                           580
    x61       obj1                            1
    x61       c10                           439
    x61       c21                           939
    x61       c29                           632
    x61       c34                           136
    x62       obj1                            1
    x62       c3                            462
    x62       c12                           631
    x62       c14                           805
    x62       c30                           976
    x62       c31                           823
    x63       obj1                            1
    x63       c28                           359
    x64       obj1                            1
    x64       c10                           812
    x64       c19                           289
    x64       c22                           987
    x65       obj1                            1
    x65       c16                           343
    x65       c26                           394
    x65       c33                           528
    x66       obj1                            1
    x66       c10                           687
    x66       c17                           635
    x66       c20                           620
    x66       c33                           560
    x67       obj1                            1
    x67       c5                            805
    x67       c19                           854
    x67       c20                           674
    x67       c24                           807
    x67       c25                           127
    x67       c29                           234
    x67       c33                           905
    x67       c35                           409
    x68       obj1                            1
    x68       c23                           906
    x68       c24                           841
    x68       c25                           843
    x68       c31                           587
    x69       obj1                            1
    x69       c2                            414
    x69       c9                            297
    x69       c19                           886
    x69       c25                           325
    x69       c31                           768
    x69       c33                           362
    x69       c34                           578
    x69       c35                           736
    x70       obj1                            1
    x70       c1                            463
    x70       c8                            388
    x70       c13                           277
    x70       c34                           499
    MARK0001  'MARKER'                 'INTEND'
RHS
    rhs       c1                           3036
    rhs       c2                           1808
    rhs       c3                           2076
    rhs       c4                           1377
    rhs       c5                           2243
    rhs       c6                           1873
    rhs       c7                           1871
    rhs       c8                           2239
    rhs       c9                           1329
    rhs       c10                          3230
    rhs       c11                          1677
    rhs       c12                          3359
    rhs       c13                          2079
    rhs       c14                          2424
    rhs       c15                          1325
    rhs       c16                          1042
    rhs       c17                          1485
    rhs       c18                          1811
    rhs       c19                          2389
    rhs       c20                          2985
    rhs       c21                          1466
    rhs       c22                          2277
    rhs       c23                          1982
    rhs       c24                          2329
    rhs       c25                          2630
    rhs       c26                          1727
    rhs       c27                           820
    rhs       c28                           936
    rhs       c29                          1215
    rhs       c30                          1433
    rhs       c31                          2819
    rhs       c32                          1517
    rhs       c33                          2583
    rhs       c34                          2218
    rhs       c35                           946
BOUNDS
 LI bnd       x1        0
 LI bnd       x2        0
 LI bnd       x3        0
 LI bnd       x4        0
 LI bnd       x5        0
 LI bnd       x6        0
 LI bnd       x7        0
 LI bnd       x8        0
 LI bnd       x9        0
 LI bnd       x10       0
 LI bnd       x11       0
 LI bnd       x12       0
 LI bnd       x13       0
 LI bnd       x14       0
 LI bnd       x15       0
 LI bnd       x16       0
 LI bnd       x17       0
 LI bnd       x18       0
 LI bnd       x19       0
 LI bnd       x20       0
 LI bnd       x21       0
 LI bnd       x22       0
 LI bnd       x23       0
 LI bnd       x24       0
 LI bnd       x25       0
 LI bnd       x26       0
 LI bnd       x27       0
 LI bnd       x28       0
 LI bnd       x29       0
 LI bnd       x30       0
 LI bnd       x31       0
 LI bnd       x32       0
 LI bnd       x33       0
 LI bnd       x34       0
 LI bnd       x35       0
 LI bnd       x36       0
 LI bnd       x37       0
 LI bnd       x38       0
 LI bnd       x39       0
 LI bnd       x40       0
 LI bnd       x41       0
 LI bnd       x42       0
 LI bnd       x43       0
 LI bnd       x44       0
 LI bnd       x45       0
 LI bnd       x46       0
 LI bnd       x47       0
 LI bnd       x48       0
 LI bnd       x49       0
 LI bnd       x50       0
 LI bnd       x51       0
 LI bnd       x52       0
 LI bnd       x53       0
 LI bnd       x54       0
 LI bnd       x55       0
 LI bnd       x56       0
 LI bnd       x57       0
 LI bnd       x58       0
 LI bnd       x59       0
 LI bnd       x60       0
 LI bnd       x61       0
 LI bnd       x62       0
 LI bnd       x63       0
 LI bnd       x64       0
 LI bnd       x65       0
 LI bnd       x66       0
 LI bnd       x67       0
 LI bnd       x68       0
 LI bnd       x69       0
 LI bnd       x70       0
ENDATA
